proyfinal/src/viki/013/experimentInOfficeAgust.take6.output/91db7174-3c71-4f31-85fe-5cc06ed7c1de.als.dat
{'cnf.clauses': '118081',
 'cnf.totvars': '69608',
 'conflict literals': '59',
 'conflicts': '18',
 'decisions': '2426',
 'memused.mb': '15.51',
 'outcome': 'UNSAT',
 'propagations': '19319',
 'restarts': '1',
 'solver.msecs': 31,
 'task.msecs': 118}
