proyfinal/src/viki/013/experimentInOfficeAgust.take6.output/91db7174-3c71-4f31-85fe-5cc06ed7c1de.als.out
Reading from standard input... Use '--help' for help.
============================[ Problem Statistics ]=============================
|                                                                             |
|  Number of variables:         69608                                         |
|  Number of clauses:          118081                                         |
|  Parse time:                   0.03 s                                       |
|                                                                             |
============================[ Search Statistics ]==============================
| Conflicts |          ORIGINAL         |          LEARNT          | Progress |
|           |    Vars  Clauses Literals |    Limit  Clauses Lit/Cl |          |
===============================================================================
===============================================================================
restarts              : 1
conflicts             : 18             (574 /sec)
decisions             : 2426           (0.00 % random) (77419 /sec)
propagations          : 19319          (616511 /sec)
conflict literals     : 59             (0.00 % deleted)
Memory used           : 15.51 MB
CPU time              : 0.031336 s

UNSATISFIABLE
